bestever    1679    in generation 0
[14, 7, 9, 11, 16, 17, 10, 13, 20, 1, 12, 5, 19, 18, 4, 8, 3, 6, 2, 15, 14, 7, 9, 11, 16, 17, 10, 13, 20, 1, 12, 5, 19, 18, 4, 8, 3, 6, 2, 15, 14, 7, 9, 11, 16, 17, 10, 13, 20, 1, 12, 5, 19, 18, 4, 8, 3, 6, 2, 15, 14, 7, 9, 11, 16, 17, 10, 13, 20, 1, 12, 5, 19, 18, 4, 8, 3, 6, 2, 15, 14, 7, 9, 11, 16, 17, 10, 13, 20, 1, 12, 5, 19, 18, 4, 8, 3, 6, 2, 15, 14, 7, 9, 11, 16, 17, 10, 13, 20, 1, 12, 5, 19, 18, 4, 8, 3, 6, 2, 15, 14, 7, 9, 11, 16, 17, 10, 13, 20, 1, 12, 5, 19, 18, 4, 8, 3, 6, 2, 15, 14, 7, 9, 11, 16, 17, 10, 13, 20, 1, 12, 5, 19, 18, 4, 8, 3, 6, 2, 15, 14, 7, 9, 11, 16, 17, 10, 13, 20, 1, 12, 5, 19, 18, 4, 8, 3, 6, 2, 15, 14, 7, 9, 11, 16, 17, 10, 13, 20, 1, 12, 5, 19, 18, 4, 8, 3, 6, 2, 15]
bestever    1667    in generation 102
[14, 7, 9, 11, 16, 17, 10, 13, 20, 1, 12, 19, 18, 5, 4, 8, 3, 6, 2, 15, 14, 7, 9, 11, 16, 17, 10, 13, 20, 1, 12, 19, 18, 5, 4, 8, 3, 6, 2, 15, 14, 7, 9, 11, 16, 17, 10, 13, 20, 1, 12, 19, 18, 5, 4, 8, 3, 6, 2, 15, 14, 7, 9, 11, 16, 17, 10, 13, 20, 1, 12, 19, 18, 5, 4, 8, 3, 6, 2, 15, 9, 14, 7, 11, 16, 17, 10, 13, 20, 1, 12, 19, 18, 5, 4, 8, 3, 6, 2, 15, 14, 7, 9, 11, 16, 17, 10, 13, 20, 1, 12, 19, 18, 5, 4, 8, 3, 6, 2, 15, 14, 7, 9, 11, 16, 17, 10, 13, 20, 1, 12, 19, 18, 5, 4, 8, 3, 6, 2, 15, 14, 7, 9, 11, 16, 17, 10, 13, 20, 1, 12, 19, 18, 5, 4, 8, 3, 6, 2, 15, 14, 7, 9, 11, 16, 17, 10, 13, 20, 1, 12, 19, 18, 5, 4, 8, 3, 6, 2, 15, 14, 7, 9, 11, 16, 17, 10, 13, 20, 1, 12, 19, 18, 5, 4, 8, 3, 6, 2, 15]
bestever    1663    in generation 111
[14, 7, 9, 11, 16, 17, 10, 13, 20, 1, 12, 5, 19, 18, 8, 3, 6, 2, 15, 4, 14, 7, 9, 11, 16, 17, 10, 13, 20, 1, 12, 5, 19, 18, 8, 3, 6, 2, 15, 4, 14, 7, 9, 11, 16, 17, 10, 13, 20, 1, 12, 5, 14, 7, 9, 11, 16, 17, 10, 13, 20, 1, 12, 5, 19, 18, 8, 3, 6, 2, 15, 4, 19, 18, 8, 3, 6, 2, 15, 4, 14, 7, 9, 11, 16, 17, 10, 13, 20, 1, 12, 5, 19, 18, 8, 3, 6, 2, 15, 4, 14, 7, 9, 11, 16, 17, 10, 13, 20, 1, 12, 5, 19, 18, 8, 3, 6, 2, 15, 4, 14, 7, 9, 11, 16, 17, 10, 13, 20, 1, 12, 5, 19, 18, 8, 3, 6, 2, 15, 4, 14, 7, 9, 11, 16, 17, 10, 13, 20, 1, 12, 5, 19, 18, 8, 3, 6, 2, 15, 4, 14, 7, 9, 11, 16, 17, 10, 13, 20, 1, 12, 5, 19, 18, 8, 3, 6, 2, 15, 4, 14, 7, 9, 11, 16, 17, 10, 13, 20, 1, 12, 5, 19, 18, 8, 3, 6, 2, 15, 4]
bestever    1657    in generation 215
[14, 7, 9, 11, 16, 17, 10, 13, 20, 1, 5, 12, 19, 18, 8, 3, 6, 2, 15, 4, 14, 7, 9, 11, 16, 17, 10, 13, 20, 1, 5, 12, 19, 18, 8, 3, 6, 2, 15, 4, 14, 7, 9, 11, 16, 17, 10, 13, 20, 1, 5, 12, 19, 18, 8, 3, 6, 2, 15, 4, 14, 7, 9, 11, 16, 17, 10, 13, 20, 1, 5, 12, 19, 18, 8, 3, 6, 2, 15, 4, 14, 7, 9, 11, 16, 17, 10, 13, 20, 1, 5, 12, 19, 18, 8, 3, 6, 2, 15, 4, 14, 7, 9, 11, 16, 17, 10, 13, 20, 1, 5, 12, 19, 18, 8, 3, 6, 2, 15, 4, 14, 7, 9, 11, 16, 17, 10, 13, 20, 1, 5, 12, 19, 18, 8, 3, 6, 2, 15, 4, 14, 7, 9, 11, 16, 17, 10, 13, 20, 1, 5, 12, 19, 18, 8, 3, 2, 6, 15, 4, 14, 7, 9, 11, 16, 17, 10, 13, 20, 1, 5, 12, 19, 18, 8, 3, 2, 6, 15, 4, 14, 7, 9, 11, 16, 17, 10, 13, 20, 12, 1, 5, 19, 18, 8, 3, 2, 6, 15, 4]
bestever    1656    in generation 318
[14, 7, 9, 11, 16, 17, 10, 20, 13, 1, 5, 12, 19, 18, 8, 3, 6, 2, 15, 4, 14, 7, 9, 11, 16, 17, 10, 20, 13, 1, 5, 12, 19, 18, 8, 3, 2, 6, 15, 4, 14, 7, 9, 11, 16, 17, 10, 20, 13, 1, 5, 12, 19, 18, 8, 3, 2, 6, 15, 4, 14, 7, 9, 11, 16, 17, 10, 20, 13, 1, 5, 12, 19, 18, 8, 3, 2, 6, 15, 4, 14, 7, 9, 11, 16, 17, 10, 20, 13, 1, 5, 12, 19, 18, 8, 3, 2, 6, 15, 4, 14, 7, 9, 11, 16, 17, 10, 20, 13, 1, 5, 12, 19, 18, 8, 3, 2, 6, 15, 4, 14, 7, 9, 11, 16, 17, 10, 20, 13, 1, 5, 12, 19, 18, 8, 3, 2, 6, 15, 4, 14, 7, 9, 11, 16, 17, 10, 20, 13, 1, 5, 12, 19, 18, 8, 3, 2, 6, 15, 4, 14, 7, 9, 11, 16, 17, 10, 20, 13, 1, 5, 12, 19, 18, 8, 3, 2, 6, 15, 4, 14, 7, 9, 11, 16, 17, 10, 20, 13, 12, 1, 5, 19, 18, 8, 3, 2, 6, 15, 4]
bestever    1645    in generation 326
[14, 7, 9, 11, 16, 17, 10, 20, 13, 1, 5, 12, 19, 18, 8, 3, 2, 14, 7, 9, 11, 16, 17, 10, 20, 13, 1, 5, 12, 19, 18, 8, 3, 2, 6, 15, 4, 6, 15, 4, 14, 7, 9, 11, 16, 17, 10, 20, 13, 1, 5, 12, 19, 18, 8, 3, 2, 6, 15, 4, 14, 7, 9, 11, 16, 17, 10, 20, 13, 1, 5, 12, 19, 18, 8, 3, 2, 6, 15, 4, 14, 7, 9, 11, 16, 17, 10, 20, 13, 1, 5, 12, 19, 18, 8, 3, 2, 6, 15, 4, 14, 7, 9, 11, 16, 17, 10, 20, 13, 1, 5, 12, 19, 18, 8, 3, 2, 6, 15, 4, 14, 7, 9, 11, 16, 17, 10, 20, 13, 1, 5, 12, 19, 18, 8, 3, 2, 6, 15, 14, 7, 9, 11, 16, 17, 10, 20, 13, 1, 5, 12, 19, 4, 18, 8, 3, 2, 6, 15, 4, 14, 7, 9, 11, 16, 17, 10, 20, 13, 1, 5, 12, 19, 18, 8, 3, 2, 6, 15, 4, 14, 7, 9, 11, 16, 17, 10, 20, 13, 12, 1, 5, 19, 18, 8, 3, 2, 6, 15, 4]
bestever    1640    in generation 428
[14, 7, 10, 9, 11, 16, 17, 20, 13, 1, 5, 12, 19, 18, 8, 3, 2, 6, 15, 4, 14, 7, 10, 9, 11, 16, 17, 20, 13, 1, 5, 12, 19, 18, 8, 3, 2, 6, 15, 4, 14, 7, 10, 9, 11, 16, 17, 20, 13, 1, 5, 12, 19, 18, 8, 3, 2, 6, 15, 4, 14, 7, 10, 9, 11, 16, 17, 20, 13, 1, 5, 12, 19, 18, 8, 3, 2, 6, 15, 4, 14, 7, 10, 9, 11, 16, 17, 20, 13, 1, 5, 12, 19, 18, 8, 3, 2, 6, 15, 4, 14, 7, 10, 9, 11, 16, 17, 20, 13, 1, 5, 12, 19, 18, 8, 3, 2, 6, 15, 4, 14, 7, 10, 9, 11, 16, 17, 20, 13, 1, 5, 12, 19, 18, 8, 3, 2, 6, 15, 4, 14, 7, 10, 9, 11, 16, 17, 20, 13, 1, 5, 12, 19, 18, 8, 3, 2, 6, 15, 4, 14, 7, 10, 9, 11, 16, 17, 20, 13, 1, 5, 12, 19, 18, 8, 3, 2, 6, 15, 4, 14, 7, 10, 9, 11, 16, 17, 20, 13, 12, 1, 5, 19, 18, 8, 3, 2, 6, 15, 4]
bestever    1628    in generation 535
[14, 7, 16, 10, 9, 11, 17, 20, 13, 1, 5, 12, 19, 18, 8, 3, 2, 6, 15, 4, 14, 7, 16, 10, 9, 11, 17, 20, 13, 1, 5, 12, 19, 18, 8, 3, 2, 6, 15, 4, 14, 7, 16, 10, 9, 11, 17, 20, 13, 1, 5, 12, 19, 18, 8, 3, 2, 6, 15, 4, 14, 7, 16, 10, 9, 11, 17, 20, 13, 1, 5, 12, 19, 18, 8, 3, 2, 6, 15, 4, 14, 7, 16, 10, 9, 11, 17, 20, 13, 1, 5, 12, 19, 18, 8, 3, 2, 6, 15, 4, 14, 7, 16, 10, 9, 11, 17, 20, 13, 1, 5, 12, 19, 18, 8, 3, 2, 6, 15, 4, 14, 7, 16, 10, 9, 11, 17, 20, 13, 1, 5, 12, 19, 18, 8, 3, 2, 6, 15, 4, 14, 7, 16, 10, 9, 11, 17, 20, 13, 1, 5, 12, 19, 18, 8, 3, 2, 6, 15, 4, 14, 7, 16, 10, 9, 11, 17, 20, 13, 1, 5, 12, 19, 18, 8, 3, 2, 6, 15, 4, 14, 7, 16, 10, 9, 11, 17, 20, 13, 12, 1, 5, 19, 18, 8, 3, 2, 6, 15, 4]
bestever    1625    in generation 641
[7, 16, 14, 10, 9, 11, 17, 20, 13, 1, 12, 19, 5, 18, 8, 3, 2, 6, 15, 4, 7, 16, 14, 10, 9, 11, 17, 20, 13, 1, 12, 19, 5, 18, 8, 3, 2, 6, 15, 4, 7, 16, 14, 10, 9, 11, 17, 20, 13, 1, 12, 19, 5, 18, 8, 3, 2, 6, 15, 4, 7, 16, 14, 10, 9, 11, 17, 20, 13, 1, 12, 19, 5, 18, 8, 3, 2, 6, 15, 4, 7, 16, 14, 10, 9, 11, 17, 20, 13, 1, 12, 19, 5, 18, 8, 3, 2, 6, 15, 4, 7, 16, 14, 10, 9, 11, 17, 20, 13, 1, 12, 19, 5, 18, 8, 3, 2, 6, 15, 4, 7, 16, 14, 10, 9, 11, 17, 20, 13, 1, 12, 19, 5, 18, 8, 3, 2, 6, 15, 4, 7, 16, 14, 10, 9, 11, 17, 20, 13, 1, 12, 19, 5, 18, 8, 3, 2, 6, 15, 4, 7, 16, 14, 10, 9, 11, 17, 20, 13, 1, 12, 19, 5, 18, 8, 3, 2, 6, 15, 4, 7, 16, 14, 10, 9, 11, 17, 20, 13, 12, 1, 19, 18, 5, 8, 3, 2, 6, 15, 4]
bestever    1619    in generation 755
[7, 16, 14, 10, 9, 11, 20, 13, 17, 1, 12, 19, 5, 8, 18, 3, 2, 6, 15, 4, 7, 16, 14, 10, 9, 11, 20, 13, 17, 1, 12, 19, 5, 8, 18, 3, 2, 6, 15, 4, 7, 16, 14, 10, 9, 11, 20, 13, 17, 1, 12, 19, 5, 8, 18, 3, 2, 6, 15, 4, 7, 16, 14, 10, 9, 11, 20, 13, 17, 1, 12, 19, 5, 8, 18, 3, 2, 6, 15, 4, 7, 16, 14, 10, 9, 11, 20, 13, 17, 1, 12, 19, 5, 8, 18, 3, 2, 6, 15, 4, 7, 16, 14, 10, 9, 11, 20, 13, 17, 1, 12, 19, 5, 8, 18, 3, 2, 6, 15, 4, 7, 16, 14, 10, 9, 11, 20, 13, 17, 1, 12, 19, 5, 8, 18, 3, 2, 6, 15, 4, 7, 16, 14, 10, 9, 11, 20, 13, 17, 1, 12, 19, 5, 8, 18, 3, 2, 6, 15, 4, 7, 16, 14, 10, 9, 11, 20, 13, 17, 1, 12, 19, 5, 8, 18, 3, 2, 6, 15, 4, 7, 16, 14, 10, 9, 11, 20, 13, 17, 1, 12, 19, 5, 8, 18, 3, 2, 6, 15, 4]
bestever    1616    in generation 857
[7, 16, 14, 10, 9, 11, 20, 13, 17, 1, 12, 19, 5, 8, 18, 3, 2, 4, 15, 6, 7, 16, 14, 10, 9, 11, 20, 13, 17, 1, 12, 19, 5, 8, 18, 3, 2, 4, 15, 6, 7, 16, 14, 10, 9, 11, 20, 13, 17, 1, 12, 19, 5, 8, 18, 3, 2, 4, 15, 6, 7, 16, 14, 10, 9, 11, 20, 13, 17, 1, 12, 19, 5, 8, 18, 3, 2, 4, 15, 6, 7, 16, 14, 10, 9, 11, 20, 13, 17, 1, 12, 19, 5, 8, 18, 3, 2, 15, 4, 6, 7, 16, 14, 10, 9, 11, 20, 13, 17, 1, 12, 19, 5, 8, 18, 3, 2, 15, 4, 6, 7, 16, 14, 10, 9, 11, 20, 13, 17, 1, 12, 19, 5, 8, 18, 3, 2, 15, 4, 6, 7, 16, 14, 10, 9, 11, 20, 13, 17, 1, 12, 19, 5, 8, 18, 3, 2, 15, 4, 6, 7, 16, 14, 10, 9, 11, 20, 13, 17, 1, 12, 19, 5, 8, 18, 3, 2, 15, 4, 6, 7, 16, 14, 10, 9, 11, 20, 13, 17, 1, 12, 19, 5, 8, 18, 3, 2, 15, 4, 6]
bestever    1615    in generation 963
[7, 16, 14, 10, 17, 9, 11, 13, 20, 1, 12, 19, 5, 8, 18, 3, 2, 4, 15, 6, 7, 16, 14, 10, 17, 9, 11, 13, 20, 1, 12, 19, 5, 8, 18, 3, 2, 15, 4, 6, 7, 16, 14, 10, 17, 9, 11, 13, 20, 1, 12, 19, 5, 8, 18, 3, 2, 15, 4, 6, 7, 16, 14, 10, 17, 9, 11, 13, 20, 1, 12, 19, 5, 8, 18, 3, 2, 15, 4, 6, 7, 16, 14, 10, 17, 9, 11, 13, 20, 1, 12, 19, 5, 8, 18, 3, 2, 15, 4, 6, 7, 16, 14, 10, 17, 9, 11, 13, 20, 1, 12, 19, 5, 8, 18, 3, 2, 15, 4, 6, 7, 16, 14, 10, 17, 9, 11, 13, 20, 1, 12, 19, 5, 8, 18, 3, 2, 15, 4, 6, 7, 16, 14, 10, 17, 9, 11, 13, 20, 1, 12, 19, 5, 8, 18, 3, 2, 15, 4, 6, 7, 16, 14, 10, 17, 9, 11, 13, 20, 1, 12, 19, 5, 8, 18, 3, 2, 15, 4, 6, 7, 16, 14, 10, 17, 9, 11, 13, 20, 1, 12, 19, 5, 8, 18, 3, 2, 15, 4, 6]
bestever    1606    in generation 1065
[7, 16, 14, 10, 17, 9, 11, 13, 20, 18, 1, 12, 19, 5, 8, 3, 2, 15, 4, 6, 7, 16, 14, 10, 17, 9, 11, 13, 20, 18, 1, 12, 19, 5, 8, 3, 2, 15, 4, 6, 7, 16, 14, 10, 17, 9, 11, 13, 20, 18, 1, 12, 19, 5, 8, 3, 2, 15, 4, 6, 7, 16, 14, 10, 17, 9, 11, 13, 20, 18, 1, 12, 19, 5, 8, 3, 2, 15, 4, 6, 7, 16, 14, 10, 17, 9, 11, 13, 20, 18, 1, 12, 19, 5, 8, 3, 2, 15, 4, 6, 7, 16, 14, 10, 17, 9, 11, 13, 20, 18, 1, 12, 19, 5, 8, 3, 2, 15, 4, 6, 7, 16, 14, 10, 17, 9, 11, 13, 20, 18, 1, 12, 19, 5, 8, 3, 2, 15, 4, 6, 7, 16, 14, 10, 17, 9, 11, 13, 20, 18, 1, 12, 19, 5, 8, 3, 2, 15, 4, 6, 7, 16, 14, 10, 17, 9, 11, 13, 20, 18, 1, 12, 19, 5, 8, 3, 2, 15, 4, 6, 10, 17, 9, 7, 16, 14, 11, 13, 20, 18, 1, 12, 19, 5, 8, 3, 2, 15, 4, 6]
bestever    1605    in generation 1172
[10, 7, 16, 14, 17, 9, 11, 13, 20, 18, 12, 19, 1, 5, 8, 3, 2, 15, 4, 6, 10, 7, 16, 14, 17, 9, 11, 13, 20, 18, 12, 19, 1, 5, 8, 3, 2, 15, 4, 6, 10, 7, 16, 14, 17, 9, 11, 13, 20, 18, 12, 19, 1, 5, 8, 3, 2, 15, 4, 6, 10, 7, 16, 14, 17, 9, 11, 13, 20, 18, 12, 19, 1, 5, 8, 3, 2, 15, 4, 6, 10, 7, 16, 14, 17, 9, 11, 13, 20, 18, 12, 19, 1, 5, 8, 3, 2, 15, 4, 6, 10, 7, 16, 14, 17, 9, 11, 13, 20, 18, 12, 19, 1, 5, 8, 3, 2, 15, 4, 6, 10, 7, 16, 14, 17, 9, 11, 13, 20, 18, 12, 19, 1, 5, 8, 3, 2, 15, 4, 6, 10, 7, 16, 14, 17, 9, 11, 13, 20, 18, 12, 19, 1, 5, 8, 3, 2, 15, 4, 6, 10, 7, 16, 14, 17, 9, 11, 13, 20, 18, 12, 19, 1, 5, 8, 3, 2, 15, 4, 6, 10, 17, 9, 7, 16, 14, 11, 13, 20, 18, 12, 19, 1, 5, 8, 3, 2, 15, 4, 6]
bestever    1601    in generation 1278
[14, 10, 7, 16, 17, 9, 11, 13, 20, 18, 12, 19, 1, 5, 8, 3, 2, 15, 4, 6, 14, 10, 7, 16, 17, 9, 11, 13, 20, 18, 12, 19, 1, 5, 8, 3, 2, 15, 4, 6, 14, 10, 7, 16, 17, 9, 11, 13, 20, 18, 12, 19, 1, 5, 8, 3, 2, 15, 4, 6, 14, 10, 7, 16, 17, 9, 11, 13, 20, 18, 12, 19, 1, 5, 8, 3, 2, 15, 4, 6, 14, 10, 7, 16, 17, 9, 11, 13, 20, 18, 12, 19, 1, 5, 8, 3, 2, 15, 4, 6, 14, 10, 7, 16, 17, 9, 11, 13, 20, 18, 12, 19, 1, 5, 8, 3, 2, 15, 4, 6, 14, 10, 7, 16, 17, 9, 11, 13, 20, 18, 12, 19, 1, 5, 8, 3, 2, 15, 4, 6, 14, 10, 7, 16, 17, 9, 11, 13, 20, 18, 12, 19, 1, 5, 8, 3, 2, 15, 4, 6, 14, 10, 7, 16, 17, 9, 11, 13, 20, 18, 12, 19, 1, 5, 8, 3, 2, 15, 4, 6, 14, 10, 17, 9, 7, 16, 11, 13, 20, 18, 12, 19, 1, 5, 8, 3, 2, 15, 4, 6]
bestever    1592    in generation 1380
[14, 10, 7, 16, 17, 9, 11, 13, 20, 18, 12, 19, 1, 5, 15, 8, 3, 2, 4, 6, 14, 10, 7, 16, 17, 9, 11, 13, 20, 18, 12, 19, 1, 5, 15, 8, 3, 2, 4, 6, 14, 10, 7, 16, 17, 9, 11, 13, 20, 18, 12, 19, 1, 5, 15, 8, 3, 2, 4, 6, 14, 10, 7, 16, 17, 9, 11, 13, 20, 18, 12, 19, 1, 5, 15, 8, 3, 2, 4, 6, 14, 10, 7, 17, 9, 16, 11, 13, 20, 18, 12, 19, 1, 5, 15, 8, 3, 2, 4, 6, 14, 10, 7, 17, 9, 16, 11, 13, 20, 18, 12, 19, 1, 5, 15, 8, 3, 2, 4, 6, 14, 10, 7, 16, 17, 9, 11, 13, 20, 18, 12, 19, 1, 5, 15, 8, 3, 2, 4, 6, 14, 10, 7, 16, 17, 9, 11, 13, 20, 18, 12, 19, 1, 5, 15, 8, 3, 2, 4, 6, 14, 10, 7, 16, 17, 9, 11, 13, 20, 18, 12, 19, 1, 5, 15, 8, 3, 2, 4, 6, 14, 10, 17, 9, 7, 16, 11, 13, 20, 18, 12, 19, 1, 5, 15, 8, 3, 2, 4, 6]
bestever    1576    in generation 1496
[14, 17, 10, 7, 16, 9, 11, 13, 20, 18, 12, 19, 1, 5, 15, 8, 3, 2, 4, 6, 14, 17, 10, 7, 16, 9, 11, 13, 20, 18, 12, 19, 1, 5, 15, 8, 3, 2, 4, 6, 14, 17, 10, 7, 16, 9, 11, 13, 20, 18, 12, 19, 1, 5, 15, 8, 3, 2, 4, 6, 14, 17, 10, 7, 16, 9, 11, 13, 20, 18, 12, 19, 1, 5, 15, 8, 3, 2, 4, 6, 17, 14, 10, 7, 9, 16, 11, 13, 20, 18, 12, 19, 1, 5, 15, 8, 3, 2, 4, 6, 17, 14, 10, 7, 9, 16, 11, 13, 20, 18, 12, 19, 1, 5, 15, 8, 3, 2, 4, 6, 14, 17, 10, 7, 16, 9, 11, 13, 20, 18, 12, 19, 1, 5, 15, 8, 3, 2, 4, 6, 14, 17, 10, 7, 16, 9, 11, 13, 20, 18, 12, 19, 1, 5, 15, 8, 3, 2, 4, 6, 14, 17, 10, 7, 16, 9, 11, 13, 20, 18, 12, 19, 1, 5, 15, 8, 3, 2, 4, 6, 17, 14, 10, 9, 7, 16, 11, 13, 20, 18, 12, 19, 1, 5, 15, 8, 3, 2, 4, 6]
bestever    1574    in generation 1598
[4, 14, 17, 10, 7, 16, 9, 11, 13, 20, 18, 12, 19, 1, 5, 15, 8, 3, 2, 6, 4, 14, 17, 10, 7, 16, 9, 11, 13, 20, 18, 12, 19, 1, 5, 15, 8, 3, 2, 6, 4, 14, 17, 10, 7, 16, 9, 11, 13, 20, 18, 12, 19, 1, 5, 15, 8, 3, 2, 6, 4, 14, 17, 10, 7, 16, 9, 11, 13, 20, 18, 12, 19, 1, 5, 15, 8, 3, 2, 6, 4, 17, 14, 10, 7, 9, 16, 11, 13, 20, 18, 12, 19, 1, 5, 15, 8, 3, 2, 6, 4, 17, 14, 10, 7, 9, 16, 11, 13, 20, 18, 12, 19, 1, 5, 15, 8, 3, 2, 6, 4, 14, 17, 10, 7, 16, 9, 11, 13, 20, 18, 12, 19, 1, 5, 15, 8, 3, 2, 6, 4, 14, 17, 10, 7, 16, 9, 11, 13, 20, 18, 12, 19, 1, 5, 15, 8, 3, 2, 6, 4, 14, 17, 10, 7, 16, 9, 11, 13, 20, 18, 12, 19, 1, 5, 15, 8, 3, 2, 6, 4, 17, 14, 10, 9, 7, 16, 11, 13, 20, 18, 12, 19, 1, 5, 15, 8, 3, 2, 6]
bestever    1564    in generation 1706
[4, 14, 17, 10, 7, 16, 9, 11, 13, 18, 20, 12, 19, 1, 5, 15, 8, 3, 2, 6, 4, 14, 17, 10, 7, 16, 9, 11, 13, 18, 20, 12, 19, 1, 5, 15, 8, 3, 2, 6, 4, 14, 17, 10, 7, 16, 9, 11, 13, 18, 20, 12, 19, 1, 5, 15, 8, 3, 2, 6, 4, 14, 17, 10, 7, 16, 9, 11, 13, 18, 20, 12, 19, 1, 5, 15, 8, 3, 2, 6, 4, 17, 14, 10, 7, 16, 9, 11, 13, 18, 20, 12, 19, 1, 5, 15, 8, 3, 2, 6, 4, 17, 14, 10, 7, 9, 16, 11, 13, 18, 20, 12, 19, 1, 5, 15, 8, 3, 2, 6, 4, 14, 17, 10, 7, 16, 9, 11, 13, 18, 20, 12, 19, 1, 5, 15, 8, 3, 2, 6, 4, 14, 17, 10, 7, 16, 9, 11, 13, 18, 20, 12, 19, 1, 5, 15, 8, 3, 2, 6, 4, 14, 17, 10, 7, 16, 9, 11, 13, 18, 20, 12, 19, 1, 5, 15, 8, 3, 2, 6, 4, 17, 14, 10, 7, 9, 16, 11, 13, 18, 20, 12, 19, 1, 5, 15, 8, 3, 2, 6]
bestever    1562    in generation 1819
[4, 14, 10, 16, 7, 9, 17, 11, 13, 18, 20, 12, 19, 1, 5, 15, 8, 3, 2, 6, 4, 14, 10, 16, 7, 9, 17, 11, 13, 18, 20, 12, 19, 1, 5, 15, 8, 3, 2, 6, 4, 14, 10, 16, 7, 9, 17, 11, 13, 18, 20, 12, 19, 1, 5, 15, 8, 3, 2, 6, 4, 14, 10, 16, 7, 9, 17, 11, 13, 18, 20, 12, 19, 1, 5, 15, 8, 3, 2, 6, 4, 14, 10, 16, 7, 17, 9, 11, 13, 18, 20, 12, 19, 1, 5, 15, 8, 3, 2, 6, 4, 14, 10, 16, 7, 17, 9, 11, 13, 18, 20, 12, 19, 1, 5, 15, 8, 3, 2, 6, 4, 14, 10, 16, 7, 9, 17, 11, 13, 18, 20, 12, 19, 1, 5, 15, 8, 3, 2, 6, 4, 14, 10, 16, 7, 9, 17, 11, 13, 18, 20, 12, 19, 1, 5, 15, 8, 3, 2, 6, 4, 14, 10, 16, 7, 9, 17, 11, 13, 18, 20, 12, 19, 1, 5, 15, 8, 3, 2, 6, 4, 14, 10, 7, 16, 17, 9, 11, 13, 18, 20, 12, 19, 1, 5, 15, 8, 3, 2, 6]
bestever    1560    in generation 1938
[4, 14, 16, 10, 7, 9, 17, 11, 13, 18, 20, 12, 19, 1, 15, 8, 3, 5, 2, 6, 4, 14, 16, 10, 7, 9, 17, 11, 13, 18, 20, 12, 19, 1, 15, 8, 3, 5, 2, 6, 4, 14, 16, 10, 7, 9, 17, 11, 13, 18, 20, 12, 19, 1, 15, 8, 3, 5, 2, 6, 4, 14, 16, 10, 7, 9, 17, 11, 13, 18, 20, 12, 19, 1, 15, 8, 3, 5, 2, 6, 4, 14, 16, 10, 7, 17, 9, 11, 13, 18, 20, 12, 19, 1, 15, 8, 3, 5, 2, 6, 4, 14, 16, 10, 7, 17, 9, 11, 13, 18, 20, 12, 19, 1, 15, 8, 3, 5, 2, 6, 4, 14, 16, 10, 7, 9, 17, 11, 13, 18, 20, 12, 19, 1, 15, 8, 3, 5, 2, 6, 4, 14, 16, 10, 7, 9, 17, 11, 13, 18, 20, 12, 19, 1, 15, 8, 3, 5, 2, 6, 4, 14, 7, 10, 16, 17, 9, 11, 13, 18, 20, 12, 19, 1, 15, 8, 3, 5, 2, 6, 4, 14, 16, 10, 7, 17, 9, 11, 13, 18, 20, 12, 19, 1, 15, 8, 3, 5, 2, 6]
bestever    1559    in generation 2054
[4, 14, 16, 10, 7, 9, 17, 11, 13, 18, 20, 12, 19, 3, 1, 15, 8, 5, 2, 6, 4, 14, 16, 10, 7, 9, 17, 11, 13, 18, 20, 12, 19, 3, 1, 15, 8, 5, 2, 6, 4, 14, 16, 10, 7, 9, 17, 11, 13, 18, 20, 12, 19, 3, 1, 15, 8, 5, 2, 6, 4, 14, 16, 10, 7, 9, 17, 11, 13, 18, 20, 12, 19, 3, 1, 15, 8, 5, 2, 6, 4, 14, 16, 10, 7, 17, 9, 11, 13, 18, 20, 12, 19, 3, 1, 15, 8, 5, 2, 6, 4, 14, 16, 10, 7, 17, 9, 11, 13, 18, 20, 12, 19, 3, 1, 15, 8, 5, 2, 6, 4, 14, 16, 10, 7, 9, 17, 11, 13, 18, 20, 12, 19, 3, 1, 15, 8, 5, 2, 6, 4, 14, 16, 10, 7, 9, 17, 11, 13, 18, 20, 12, 19, 3, 1, 15, 8, 5, 2, 6, 4, 14, 7, 10, 16, 17, 9, 11, 13, 18, 20, 12, 19, 3, 1, 15, 8, 5, 2, 6, 4, 14, 16, 10, 7, 17, 9, 11, 13, 18, 20, 12, 19, 3, 1, 15, 8, 5, 2, 6]
bestever    1555    in generation 2183
[4, 14, 16, 10, 7, 9, 17, 11, 13, 18, 20, 12, 19, 8, 3, 1, 15, 5, 2, 6, 4, 14, 16, 10, 7, 9, 17, 11, 13, 18, 20, 12, 19, 8, 3, 1, 15, 5, 2, 6, 4, 14, 16, 10, 7, 9, 17, 11, 13, 18, 20, 12, 19, 8, 3, 1, 15, 5, 2, 6, 4, 14, 16, 10, 7, 9, 17, 11, 13, 18, 20, 12, 19, 8, 3, 1, 15, 5, 2, 6, 4, 14, 16, 10, 7, 17, 9, 11, 13, 18, 20, 12, 19, 8, 3, 1, 15, 5, 2, 6, 4, 14, 16, 10, 7, 17, 9, 11, 13, 18, 20, 12, 19, 8, 3, 1, 15, 5, 2, 6, 4, 14, 16, 10, 7, 9, 17, 11, 13, 18, 20, 12, 19, 8, 3, 1, 15, 5, 2, 6, 4, 14, 16, 10, 7, 9, 17, 11, 13, 18, 20, 12, 19, 8, 3, 1, 15, 5, 2, 6, 4, 14, 16, 10, 7, 17, 9, 11, 13, 18, 20, 12, 19, 8, 3, 1, 15, 5, 2, 6, 4, 14, 16, 10, 7, 9, 17, 11, 13, 18, 20, 12, 19, 8, 3, 1, 15, 5, 2, 6]
bestever    1542    in generation 2317
[14, 4, 16, 10, 7, 9, 17, 11, 13, 20, 12, 19, 8, 3, 1, 15, 18, 5, 2, 6, 14, 4, 16, 10, 7, 9, 17, 11, 13, 20, 12, 19, 8, 3, 1, 15, 18, 5, 2, 6, 14, 4, 16, 10, 7, 9, 17, 11, 13, 20, 12, 19, 8, 3, 1, 15, 18, 5, 2, 6, 14, 4, 16, 10, 7, 9, 17, 11, 13, 20, 12, 19, 8, 3, 1, 15, 18, 5, 2, 6, 14, 4, 16, 10, 7, 17, 9, 11, 13, 20, 12, 19, 8, 3, 1, 15, 18, 5, 2, 6, 14, 4, 16, 10, 7, 17, 9, 11, 13, 20, 12, 19, 8, 3, 1, 15, 18, 5, 2, 6, 14, 4, 16, 10, 7, 9, 17, 11, 13, 20, 12, 19, 8, 3, 1, 15, 18, 5, 2, 6, 14, 4, 16, 10, 7, 9, 17, 11, 13, 20, 12, 19, 8, 3, 1, 15, 18, 5, 2, 6, 14, 4, 16, 10, 7, 17, 9, 11, 13, 20, 12, 19, 8, 3, 1, 15, 18, 5, 2, 6, 14, 4, 16, 10, 7, 9, 17, 11, 13, 20, 12, 19, 8, 3, 1, 15, 18, 5, 2, 6]
bestever    1534    in generation 2422
[14, 16, 10, 7, 9, 17, 4, 11, 13, 20, 12, 19, 8, 3, 1, 15, 18, 5, 2, 6, 14, 16, 10, 7, 9, 17, 4, 11, 13, 20, 12, 19, 8, 3, 1, 15, 18, 5, 2, 6, 14, 16, 10, 7, 9, 17, 4, 11, 13, 20, 12, 19, 8, 3, 1, 15, 18, 5, 2, 6, 14, 16, 10, 7, 9, 17, 4, 11, 13, 20, 12, 19, 8, 3, 1, 15, 18, 5, 2, 6, 14, 16, 10, 7, 9, 17, 4, 11, 13, 20, 12, 19, 8, 3, 1, 15, 18, 5, 2, 6, 14, 16, 10, 7, 9, 17, 4, 11, 13, 20, 12, 19, 8, 3, 1, 15, 18, 5, 2, 6, 14, 16, 10, 7, 9, 17, 4, 11, 13, 20, 12, 19, 8, 3, 1, 15, 18, 5, 2, 6, 14, 16, 10, 7, 9, 17, 4, 11, 13, 20, 12, 19, 8, 3, 1, 15, 18, 5, 2, 6, 14, 16, 10, 7, 17, 9, 4, 11, 13, 20, 12, 19, 8, 3, 1, 15, 18, 5, 2, 6, 14, 16, 10, 7, 9, 17, 4, 11, 13, 20, 12, 19, 8, 3, 1, 15, 18, 5, 2, 6]
bestever    1529    in generation 2524
[14, 16, 10, 7, 9, 17, 4, 11, 13, 20, 12, 19, 8, 3, 1, 15, 5, 2, 18, 6, 14, 16, 10, 7, 9, 17, 4, 11, 13, 20, 12, 19, 8, 3, 1, 15, 5, 2, 18, 6, 14, 16, 10, 7, 9, 17, 4, 11, 13, 20, 12, 19, 8, 3, 1, 15, 5, 2, 18, 6, 14, 16, 10, 7, 9, 17, 4, 11, 13, 20, 12, 19, 8, 3, 1, 15, 5, 2, 18, 6, 14, 16, 10, 7, 9, 17, 4, 11, 13, 20, 12, 19, 8, 3, 1, 15, 5, 2, 18, 6, 14, 16, 10, 7, 9, 17, 4, 11, 13, 20, 12, 19, 8, 3, 1, 15, 5, 2, 18, 6, 14, 16, 10, 7, 9, 17, 4, 11, 13, 20, 12, 19, 8, 3, 1, 15, 5, 2, 18, 6, 14, 16, 10, 7, 9, 17, 4, 11, 13, 20, 12, 19, 8, 3, 1, 15, 5, 2, 18, 6, 14, 16, 10, 7, 17, 9, 4, 11, 13, 20, 12, 19, 8, 3, 1, 15, 5, 2, 18, 6, 14, 16, 10, 7, 9, 17, 4, 11, 13, 20, 12, 19, 8, 3, 1, 15, 5, 2, 18, 6]
bestever    1526    in generation 2639
[14, 10, 16, 7, 9, 17, 4, 11, 13, 20, 12, 19, 3, 1, 15, 5, 2, 8, 18, 6, 14, 10, 16, 7, 9, 17, 4, 11, 13, 20, 12, 19, 3, 1, 15, 5, 2, 8, 18, 6, 14, 10, 16, 7, 9, 17, 4, 11, 13, 20, 12, 19, 3, 1, 15, 5, 2, 8, 18, 6, 14, 10, 16, 7, 9, 17, 4, 11, 13, 20, 12, 19, 3, 1, 15, 5, 2, 8, 18, 6, 14, 10, 16, 7, 9, 17, 4, 11, 13, 20, 12, 19, 3, 1, 15, 5, 2, 8, 18, 6, 14, 10, 16, 7, 9, 17, 4, 11, 13, 20, 12, 19, 3, 1, 15, 5, 2, 8, 18, 6, 14, 10, 16, 7, 9, 17, 4, 11, 13, 20, 12, 19, 3, 1, 15, 5, 2, 8, 18, 6, 14, 10, 16, 7, 9, 17, 4, 11, 13, 20, 12, 19, 3, 1, 15, 5, 2, 8, 18, 6, 14, 10, 16, 7, 9, 17, 4, 11, 13, 20, 12, 19, 3, 1, 15, 5, 2, 8, 18, 6, 14, 10, 16, 7, 9, 17, 4, 11, 13, 20, 12, 19, 3, 1, 15, 5, 2, 8, 18, 6]
bestever    1523    in generation 2741
[14, 10, 16, 7, 9, 17, 4, 11, 13, 20, 12, 19, 3, 1, 15, 5, 8, 2, 18, 6, 14, 10, 16, 7, 9, 17, 4, 11, 13, 20, 12, 19, 3, 1, 15, 5, 8, 2, 18, 6, 14, 10, 16, 7, 9, 17, 4, 11, 13, 20, 12, 19, 3, 1, 15, 5, 8, 2, 18, 6, 14, 10, 16, 7, 9, 17, 4, 11, 13, 20, 12, 19, 3, 1, 15, 5, 8, 2, 18, 6, 14, 10, 16, 7, 9, 17, 4, 11, 13, 20, 12, 19, 3, 1, 15, 5, 8, 2, 18, 6, 14, 10, 16, 7, 9, 17, 4, 11, 13, 20, 12, 19, 3, 1, 15, 5, 8, 2, 18, 6, 14, 10, 16, 7, 9, 17, 4, 11, 13, 20, 12, 19, 3, 1, 15, 5, 8, 2, 18, 6, 14, 10, 16, 7, 9, 17, 4, 11, 13, 20, 12, 19, 3, 1, 15, 5, 8, 2, 18, 6, 14, 10, 16, 7, 9, 17, 4, 11, 13, 20, 12, 19, 3, 1, 15, 5, 8, 2, 18, 6, 14, 10, 16, 7, 9, 17, 4, 11, 13, 20, 12, 19, 3, 1, 15, 5, 8, 2, 18, 6]
bestever    1512    in generation 2844
[14, 10, 16, 7, 9, 4, 11, 13, 17, 20, 12, 19, 3, 1, 15, 5, 8, 2, 18, 6, 14, 10, 16, 7, 9, 4, 11, 13, 17, 20, 12, 19, 3, 1, 15, 5, 8, 2, 18, 6, 14, 10, 16, 7, 9, 4, 11, 13, 17, 20, 12, 19, 3, 1, 15, 5, 8, 2, 18, 6, 14, 10, 16, 7, 9, 4, 11, 13, 17, 20, 12, 19, 3, 1, 15, 5, 8, 2, 18, 6, 14, 10, 16, 7, 9, 4, 11, 13, 17, 20, 12, 19, 3, 1, 15, 5, 8, 2, 18, 6, 14, 10, 16, 7, 9, 4, 11, 13, 17, 20, 12, 19, 3, 1, 15, 5, 8, 2, 18, 6, 14, 10, 16, 7, 9, 4, 11, 13, 17, 20, 12, 19, 3, 1, 15, 5, 8, 2, 18, 6, 14, 10, 16, 7, 9, 4, 11, 13, 17, 20, 12, 19, 3, 1, 15, 5, 8, 2, 18, 6, 14, 10, 16, 7, 9, 4, 11, 13, 17, 20, 12, 19, 3, 1, 15, 5, 8, 2, 18, 6, 14, 10, 16, 7, 9, 4, 11, 13, 17, 20, 12, 19, 3, 1, 15, 5, 8, 2, 18, 6]
bestever    1509    in generation 2949
[14, 10, 7, 16, 9, 4, 11, 13, 17, 20, 12, 19, 3, 1, 15, 5, 8, 2, 18, 6, 14, 10, 7, 16, 9, 4, 11, 13, 17, 20, 12, 19, 3, 1, 15, 5, 8, 2, 18, 6, 14, 10, 7, 16, 9, 4, 11, 13, 17, 20, 12, 19, 3, 1, 15, 5, 8, 2, 18, 6, 14, 10, 7, 16, 9, 4, 11, 13, 17, 20, 12, 19, 3, 1, 15, 5, 8, 2, 18, 6, 14, 10, 7, 16, 9, 4, 11, 13, 17, 20, 12, 19, 3, 1, 15, 5, 8, 2, 18, 6, 14, 10, 7, 16, 9, 4, 11, 13, 17, 20, 12, 19, 3, 1, 15, 5, 8, 2, 18, 6, 14, 10, 7, 16, 9, 4, 11, 13, 17, 20, 12, 19, 3, 1, 15, 5, 8, 2, 18, 6, 14, 10, 7, 16, 9, 4, 11, 13, 17, 20, 12, 19, 3, 1, 15, 5, 8, 2, 18, 6, 14, 10, 7, 16, 9, 4, 11, 13, 17, 20, 12, 19, 3, 1, 15, 5, 8, 2, 18, 6, 14, 10, 7, 16, 9, 4, 11, 13, 17, 20, 12, 19, 3, 1, 15, 5, 8, 2, 18, 6]
bestever    1506    in generation 3155
[7, 14, 2, 9, 10, 4, 11, 16, 13, 20, 12, 17, 19, 1, 3, 15, 5, 8, 18, 6, 7, 14, 2, 9, 10, 4, 11, 16, 13, 20, 12, 17, 19, 1, 3, 15, 5, 8, 18, 6, 7, 14, 2, 9, 10, 4, 11, 16, 13, 20, 12, 17, 19, 1, 3, 15, 5, 8, 18, 6, 7, 14, 2, 9, 10, 4, 11, 16, 13, 20, 12, 17, 19, 1, 3, 15, 5, 8, 18, 6, 7, 14, 2, 9, 10, 4, 11, 16, 13, 20, 12, 17, 19, 1, 3, 15, 5, 8, 18, 6, 7, 14, 2, 9, 10, 4, 11, 16, 13, 20, 12, 17, 19, 1, 3, 15, 5, 8, 18, 6, 7, 14, 2, 9, 10, 4, 11, 16, 13, 20, 12, 17, 19, 1, 3, 15, 5, 8, 18, 6, 7, 14, 2, 9, 10, 4, 11, 16, 13, 20, 12, 17, 19, 1, 3, 15, 5, 8, 18, 6, 7, 14, 2, 9, 10, 4, 11, 16, 13, 20, 12, 17, 19, 1, 3, 15, 5, 8, 18, 6, 7, 14, 2, 9, 10, 4, 11, 16, 13, 20, 12, 17, 19, 1, 3, 15, 5, 8, 18, 6]
bestever    1494    in generation 3297
[7, 14, 2, 9, 10, 4, 11, 16, 13, 3, 20, 12, 19, 17, 1, 15, 5, 8, 18, 6, 7, 14, 2, 9, 10, 4, 11, 16, 13, 3, 20, 12, 19, 17, 1, 15, 5, 8, 18, 6, 7, 14, 2, 9, 10, 4, 11, 16, 13, 3, 20, 12, 19, 17, 1, 15, 5, 8, 18, 6, 7, 14, 2, 9, 10, 4, 11, 16, 13, 3, 20, 12, 19, 17, 1, 15, 5, 8, 18, 6, 7, 14, 2, 9, 10, 4, 11, 16, 13, 3, 20, 12, 19, 17, 1, 15, 5, 8, 18, 6, 7, 14, 2, 9, 10, 4, 11, 16, 13, 3, 20, 12, 19, 17, 1, 15, 5, 8, 18, 6, 7, 14, 2, 9, 10, 4, 11, 16, 13, 3, 20, 12, 19, 17, 1, 15, 5, 8, 18, 6, 7, 14, 2, 9, 10, 4, 11, 16, 13, 3, 20, 12, 19, 17, 1, 15, 5, 8, 18, 6, 7, 14, 2, 9, 10, 4, 11, 16, 13, 3, 20, 12, 19, 17, 1, 15, 5, 8, 18, 6, 7, 14, 2, 9, 10, 4, 11, 16, 13, 3, 20, 12, 19, 17, 1, 15, 5, 8, 18, 6]
bestever    1487    in generation 3400
[7, 14, 2, 9, 10, 4, 11, 16, 13, 3, 20, 12, 19, 1, 15, 5, 8, 18, 6, 17, 7, 14, 2, 9, 10, 4, 11, 16, 13, 3, 20, 12, 19, 1, 15, 5, 8, 18, 6, 17, 7, 14, 2, 9, 10, 4, 11, 16, 13, 3, 20, 12, 19, 1, 15, 5, 8, 18, 6, 17, 7, 14, 2, 9, 10, 4, 11, 16, 13, 3, 20, 12, 19, 1, 15, 5, 8, 18, 6, 17, 7, 14, 2, 9, 10, 4, 11, 16, 13, 3, 20, 12, 19, 1, 15, 5, 8, 18, 6, 17, 7, 14, 2, 9, 10, 4, 11, 16, 13, 3, 20, 12, 19, 1, 15, 5, 8, 18, 6, 17, 7, 14, 2, 9, 10, 4, 11, 16, 13, 3, 20, 12, 19, 1, 15, 5, 8, 18, 6, 17, 7, 14, 2, 9, 10, 4, 11, 16, 13, 3, 20, 12, 19, 1, 15, 5, 8, 18, 6, 17, 7, 14, 2, 9, 10, 4, 11, 16, 13, 3, 20, 12, 19, 1, 15, 5, 8, 18, 6, 17, 7, 14, 2, 9, 10, 4, 11, 16, 13, 3, 20, 12, 19, 1, 15, 5, 8, 18, 6, 17]
bestever    1477    in generation 3506
[7, 14, 2, 9, 10, 4, 11, 16, 13, 3, 20, 12, 19, 1, 15, 18, 5, 8, 6, 17, 7, 14, 2, 9, 10, 4, 11, 16, 13, 3, 20, 12, 19, 1, 15, 18, 5, 8, 6, 17, 7, 14, 2, 9, 10, 4, 11, 16, 13, 3, 20, 12, 19, 1, 15, 18, 5, 8, 6, 17, 7, 14, 2, 9, 10, 4, 11, 16, 13, 3, 20, 12, 19, 1, 15, 18, 5, 8, 6, 17, 7, 14, 2, 9, 10, 4, 11, 16, 13, 3, 20, 12, 19, 1, 15, 18, 5, 8, 6, 17, 7, 14, 2, 9, 10, 4, 11, 16, 13, 3, 20, 12, 19, 1, 15, 18, 5, 8, 6, 17, 7, 14, 2, 9, 10, 4, 11, 16, 13, 3, 20, 12, 19, 1, 15, 18, 5, 8, 6, 17, 7, 14, 2, 9, 10, 4, 11, 16, 13, 3, 20, 12, 19, 1, 15, 18, 5, 8, 6, 17, 7, 14, 2, 9, 10, 4, 11, 16, 13, 3, 20, 12, 19, 1, 15, 18, 5, 8, 6, 17, 7, 14, 2, 9, 10, 4, 11, 16, 13, 3, 20, 12, 19, 1, 15, 18, 5, 8, 6, 17]
bestever    1474    in generation 3608
[7, 14, 2, 9, 10, 4, 11, 16, 13, 3, 20, 12, 19, 1, 15, 18, 5, 8, 17, 6, 7, 14, 2, 9, 10, 4, 11, 16, 13, 3, 20, 12, 19, 1, 15, 18, 5, 8, 17, 6, 7, 14, 2, 9, 10, 4, 11, 16, 13, 3, 20, 12, 19, 1, 15, 18, 5, 8, 17, 6, 7, 14, 2, 9, 10, 4, 11, 16, 13, 3, 20, 12, 19, 1, 15, 18, 5, 8, 17, 6, 7, 14, 2, 9, 10, 4, 11, 16, 13, 3, 20, 12, 19, 1, 15, 18, 5, 8, 17, 6, 7, 14, 2, 9, 10, 4, 11, 16, 13, 3, 20, 12, 19, 1, 15, 18, 5, 8, 17, 6, 7, 14, 2, 9, 10, 4, 11, 16, 13, 3, 20, 12, 19, 1, 15, 18, 5, 8, 17, 6, 7, 14, 2, 9, 10, 4, 11, 16, 13, 3, 20, 12, 19, 1, 15, 18, 5, 8, 17, 6, 7, 14, 2, 9, 10, 4, 11, 16, 13, 3, 20, 12, 19, 1, 15, 18, 5, 8, 17, 6, 7, 14, 2, 9, 10, 4, 11, 16, 13, 3, 20, 12, 19, 1, 15, 18, 5, 8, 17, 6]
bestever    1452    in generation 4019
[2, 14, 9, 4, 10, 11, 16, 13, 3, 20, 12, 19, 1, 15, 18, 5, 8, 17, 7, 6, 2, 14, 9, 4, 10, 11, 16, 13, 3, 20, 12, 19, 1, 15, 18, 5, 8, 17, 7, 6, 2, 14, 9, 4, 10, 11, 16, 13, 3, 20, 12, 19, 1, 15, 18, 5, 8, 17, 7, 6, 2, 14, 9, 4, 10, 11, 16, 13, 3, 20, 12, 19, 1, 15, 18, 5, 8, 17, 7, 6, 2, 14, 9, 4, 10, 11, 16, 13, 3, 20, 12, 19, 1, 15, 18, 5, 8, 17, 7, 6, 2, 14, 9, 4, 10, 11, 16, 13, 3, 20, 12, 19, 1, 15, 18, 5, 8, 17, 7, 6, 2, 14, 9, 4, 10, 11, 16, 13, 3, 20, 12, 19, 1, 15, 18, 5, 8, 17, 7, 6, 2, 14, 9, 4, 10, 11, 16, 13, 3, 20, 12, 19, 1, 15, 18, 5, 8, 17, 7, 6, 2, 14, 9, 4, 10, 11, 16, 13, 3, 20, 12, 19, 1, 15, 18, 5, 8, 17, 7, 6, 2, 14, 9, 4, 10, 11, 16, 13, 3, 20, 12, 19, 1, 15, 18, 5, 8, 17, 7, 6]
bestever    1446    in generation 4138
[2, 14, 9, 4, 10, 11, 16, 13, 3, 20, 12, 19, 1, 18, 15, 5, 8, 17, 7, 6, 2, 14, 9, 4, 10, 11, 16, 13, 3, 20, 12, 19, 1, 18, 15, 5, 8, 17, 7, 6, 2, 14, 9, 4, 10, 11, 16, 13, 3, 20, 12, 19, 1, 18, 15, 5, 8, 17, 7, 6, 2, 14, 9, 4, 10, 11, 16, 13, 3, 20, 12, 19, 1, 18, 15, 5, 8, 17, 7, 6, 2, 14, 9, 4, 10, 11, 16, 13, 3, 20, 12, 19, 1, 18, 15, 5, 8, 17, 7, 6, 2, 14, 9, 4, 10, 11, 16, 13, 3, 20, 12, 19, 1, 18, 15, 5, 8, 17, 7, 6, 2, 14, 9, 4, 10, 11, 16, 13, 3, 20, 12, 19, 1, 18, 15, 5, 8, 17, 7, 6, 2, 14, 9, 4, 10, 11, 16, 13, 3, 20, 12, 19, 1, 18, 15, 5, 8, 17, 7, 6, 2, 14, 9, 4, 10, 11, 16, 13, 3, 20, 12, 19, 1, 18, 15, 5, 8, 17, 7, 6, 2, 14, 9, 4, 10, 11, 16, 13, 3, 20, 12, 19, 1, 18, 15, 5, 8, 17, 7, 6]
bestever    1441    in generation 4269
[2, 14, 9, 4, 10, 11, 16, 13, 3, 20, 12, 19, 1, 18, 15, 5, 8, 7, 17, 6, 2, 14, 9, 4, 10, 11, 16, 13, 3, 20, 12, 19, 1, 18, 15, 5, 8, 7, 17, 6, 2, 14, 9, 4, 10, 11, 16, 13, 3, 20, 12, 19, 1, 18, 15, 5, 8, 7, 17, 6, 2, 14, 9, 4, 10, 11, 16, 13, 3, 20, 12, 19, 1, 18, 15, 5, 8, 7, 17, 6, 2, 14, 9, 4, 10, 11, 16, 13, 3, 20, 12, 19, 1, 18, 15, 5, 8, 7, 17, 6, 2, 14, 9, 4, 10, 11, 16, 13, 3, 20, 12, 19, 1, 18, 15, 5, 8, 7, 17, 6, 2, 14, 9, 4, 10, 11, 16, 13, 3, 20, 12, 19, 1, 18, 15, 5, 8, 7, 17, 6, 2, 14, 9, 4, 10, 11, 16, 13, 3, 20, 12, 19, 1, 18, 15, 5, 8, 7, 17, 6, 2, 14, 9, 4, 10, 11, 16, 13, 3, 20, 12, 19, 1, 18, 15, 5, 8, 7, 17, 6, 2, 14, 9, 4, 10, 11, 16, 13, 3, 20, 12, 19, 1, 18, 15, 5, 8, 7, 17, 6]
bestever    1438    in generation 4404
[2, 14, 9, 4, 10, 11, 16, 13, 20, 12, 19, 1, 15, 18, 3, 5, 8, 7, 17, 6, 2, 14, 9, 4, 10, 11, 16, 13, 20, 12, 19, 1, 15, 18, 3, 5, 8, 7, 17, 6, 2, 14, 9, 4, 10, 11, 16, 13, 20, 12, 19, 1, 15, 18, 3, 5, 8, 7, 17, 6, 2, 14, 9, 4, 10, 11, 16, 13, 20, 12, 19, 1, 15, 18, 3, 5, 8, 7, 17, 6, 2, 14, 9, 4, 10, 11, 16, 13, 20, 12, 19, 1, 15, 18, 3, 5, 8, 7, 17, 6, 2, 14, 9, 4, 10, 11, 16, 13, 20, 12, 19, 1, 15, 18, 3, 5, 8, 7, 17, 6, 2, 14, 9, 4, 10, 11, 16, 13, 20, 12, 19, 1, 15, 18, 3, 5, 8, 7, 17, 6, 2, 14, 9, 4, 10, 11, 16, 13, 20, 12, 19, 1, 15, 18, 3, 5, 8, 7, 17, 6, 2, 14, 9, 4, 10, 11, 16, 13, 20, 12, 19, 1, 15, 18, 3, 5, 8, 7, 17, 6, 2, 14, 9, 4, 10, 11, 16, 13, 20, 12, 19, 1, 15, 18, 3, 5, 8, 7, 17, 6]
